10	6	3.95
2 2 3 7 5 9 2 5 1 6 9
2 2 4 8 5 2 1 4 5
2 5 2 6 3 7 4 1 5 1 6 1 6 1 4 2 6 3 5 4 6 5 9 6 5
2 5 2 6 3 4 4 7 5 3 6 1 4 2 1 3 6 5 3 6 9
2 6 1 5 2 4 3 5 4 8 5 9 6 6 4 2 5 3 7 5 8 6 4
2 1 4 1 5 1 6 2 9 3 1 4 8 6 1
2 6 1 1 2 2 3 4 4 3 5 6 6 2 4 1 7 4 4 5 8 6 1
2 6 1 6 2 5 3 5 4 2 5 6 6 1 4 1 3 2 2 3 7 5 4
2 3 1 1 2 6 3 2 6 1 3 2 8 3 9 4 8 5 4 6 6
2 2 5 2 6 4 5 1 9 2 6 3 9 4 6 6 9
